p tw 64 70
1 2
2 13
3 4
3 16
4 5
5 6
6 7
7 8
8 9
9 10
10 11
11 12
12 14
13 24
14 15
15 16
16 17
17 18
18 19
19 20
20 21
21 22
22 23
22 47
23 25
24 35
25 26
26 27
27 28
28 29
29 30
29 43
30 31
31 32
32 33
32 43
33 34
34 36
35 46
36 37
37 38
38 39
38 43
39 40
40 41
41 42
42 60
43 44
44 45
45 21
46 57
46 56
47 48
48 49
49 50
50 51
51 52
52 53
53 54
54 55
55 56
56 58
57 62
58 59
59 60
60 61
62 63
62 4
63 64
64 3
